# Objective value = 5.2275599999999995e+03
I_0_0 1716
I_0_1 2198
I_0_2 1870
I_0_3 2280
I_1_0 95
I_1_1 95
I_1_2 5.2735593669694936e-15
I_1_3 95
I_2_0 182
I_2_1 91
I_2_2 182
I_2_3 9.0999999999999986e+01
I_3_0 82
I_3_1 82
I_3_2 82
I_3_3 0
I_4_0 134
I_4_1 67
I_4_2 134
I_4_3 6.7000000000000014e+01
I_5_0 132
I_5_1 66
I_5_2 132
I_5_3 66
I_6_0 62
I_6_1 0
I_6_2 62
I_6_3 0
I_7_0 59
I_7_1 59
I_7_2 0
I_7_3 59
I_8_0 51
I_8_1 0
I_8_2 51
I_8_3 0
I_9_0 42
I_9_1 0
I_9_2 42
I_9_3 0
I_10_0 54
I_10_1 27
I_10_2 54
I_10_3 27
I_11_0 26
I_11_1 0
I_11_2 26
I_11_3 0
I_12_0 34
I_12_1 17
I_12_2 34
I_12_3 17
I_13_0 24
I_13_1 12
I_13_2 24
I_13_3 1.2000000000000002e+01
I_14_0 11
I_14_1 0
I_14_2 11
I_14_3 0
I_15_0 10
I_15_1 0
I_15_2 10
I_15_3 0
q_1_0 95
q_1_1 5.2735593669694936e-15
q_1_2 190
q_2_0 0
q_2_1 182
q_2_2 0
q_3_0 82
q_3_1 82
q_3_2 0
q_4_0 0
q_4_1 134
q_4_2 0
q_5_0 0
q_5_1 132
q_5_2 0
q_6_0 0
q_6_1 124
q_6_2 0
q_7_0 59
q_7_1 0
q_7_2 118
q_8_0 0
q_8_1 102
q_8_2 0
q_9_0 0
q_9_1 84
q_9_2 0
q_10_0 0
q_10_1 54
q_10_2 0
q_11_0 0
q_11_1 52
q_11_2 0
q_12_0 0
q_12_1 34
q_12_2 0
q_13_0 0
q_13_1 24
q_13_2 0
q_14_0 0
q_14_1 22
q_14_2 0
q_15_0 0
q_15_1 20
q_15_2 0
y_0_0 1
y_0_1 1
y_0_2 1
y_1_0 1
y_1_1 5.5511151231257827e-17
y_1_2 1
y_2_0 0
y_2_1 1
y_2_2 0
y_3_0 1
y_3_1 1
y_3_2 0
y_4_0 0
y_4_1 1
y_4_2 0
y_5_0 0
y_5_1 1
y_5_2 0
y_6_0 0
y_6_1 1
y_6_2 0
y_7_0 1
y_7_1 0
y_7_2 1
y_8_0 0
y_8_1 1
y_8_2 0
y_9_0 0
y_9_1 1
y_9_2 0
y_10_0 0
y_10_1 1
y_10_2 0
y_11_0 0
y_11_1 1
y_11_2 0
y_12_0 0
y_12_1 1
y_12_2 0
y_13_0 0
y_13_1 1
y_13_2 0
y_14_0 0
y_14_1 1
y_14_2 0
y_15_0 0
y_15_1 1
y_15_2 0
x_0_1_0 1
x_0_1_1 -5.2735593669694936e-16
x_0_1_2 1
x_0_2_0 0
x_0_2_1 0
x_0_2_2 0
x_0_3_0 1
x_0_3_1 1
x_0_3_2 0
x_0_4_0 0
x_0_4_1 0
x_0_4_2 0
x_0_5_0 0
x_0_5_1 0
x_0_5_2 0
x_0_6_0 0
x_0_6_1 0
x_0_6_2 0
x_0_7_0 5.5511151231257827e-17
x_0_7_1 0
x_0_7_2 1
x_0_8_0 0
x_0_8_1 0
x_0_8_2 0
x_0_9_0 0
x_0_9_1 1
x_0_9_2 0
x_0_10_0 0
x_0_10_1 0
x_0_10_2 0
x_0_11_0 0
x_0_11_1 0
x_0_11_2 0
x_0_12_0 0
x_0_12_1 0
x_0_12_2 0
x_0_13_0 0
x_0_13_1 0
x_0_13_2 0
x_0_14_0 0
x_0_14_1 0
x_0_14_2 0
x_0_15_0 0
x_0_15_1 0
x_0_15_2 0
x_1_2_0 0
x_1_2_1 0
x_1_2_2 0
x_1_3_0 0
x_1_3_1 0
x_1_3_2 0
x_1_4_0 0
x_1_4_1 0
x_1_4_2 0
x_1_5_0 0
x_1_5_1 0
x_1_5_2 0
x_1_6_0 0
x_1_6_1 0
x_1_6_2 0
x_1_7_0 1
x_1_7_1 0
x_1_7_2 1
x_1_8_0 0
x_1_8_1 6.38378239159465e-16
x_1_8_2 0
x_1_9_0 0
x_1_9_1 0
x_1_9_2 0
x_1_10_0 0
x_1_10_1 0
x_1_10_2 0
x_1_11_0 0
x_1_11_1 0
x_1_11_2 0
x_1_12_0 0
x_1_12_1 0
x_1_12_2 0
x_1_13_0 0
x_1_13_1 0
x_1_13_2 0
x_1_14_0 0
x_1_14_1 0
x_1_14_2 0
x_1_15_0 0
x_1_15_1 0
x_1_15_2 0
x_2_3_0 0
x_2_3_1 0
x_2_3_2 0
x_2_4_0 0
x_2_4_1 0
x_2_4_2 0
x_2_5_0 0
x_2_5_1 0
x_2_5_2 0
x_2_6_0 0
x_2_6_1 1
x_2_6_2 0
x_2_7_0 0
x_2_7_1 0
x_2_7_2 0
x_2_8_0 0
x_2_8_1 1
x_2_8_2 0
x_2_9_0 0
x_2_9_1 0
x_2_9_2 0
x_2_10_0 0
x_2_10_1 0
x_2_10_2 0
x_2_11_0 0
x_2_11_1 0
x_2_11_2 0
x_2_12_0 0
x_2_12_1 0
x_2_12_2 0
x_2_13_0 0
x_2_13_1 0
x_2_13_2 0
x_2_14_0 0
x_2_14_1 0
x_2_14_2 0
x_2_15_0 0
x_2_15_1 0
x_2_15_2 0
x_3_4_0 0
x_3_4_1 0
x_3_4_2 0
x_3_5_0 0
x_3_5_1 0
x_3_5_2 0
x_3_6_0 0
x_3_6_1 0
x_3_6_2 0
x_3_7_0 1
x_3_7_1 0
x_3_7_2 0
x_3_8_0 0
x_3_8_1 0
x_3_8_2 0
x_3_9_0 0
x_3_9_1 0
x_3_9_2 0
x_3_10_0 0
x_3_10_1 0
x_3_10_2 0
x_3_11_0 0
x_3_11_1 1
x_3_11_2 0
x_3_12_0 0
x_3_12_1 0
x_3_12_2 0
x_3_13_0 0
x_3_13_1 0
x_3_13_2 0
x_3_14_0 0
x_3_14_1 0
x_3_14_2 0
x_3_15_0 0
x_3_15_1 0
x_3_15_2 0
x_4_5_0 0
x_4_5_1 1
x_4_5_2 0
x_4_6_0 0
x_4_6_1 1
x_4_6_2 0
x_4_7_0 0
x_4_7_1 0
x_4_7_2 0
x_4_8_0 0
x_4_8_1 0
x_4_8_2 0
x_4_9_0 0
x_4_9_1 0
x_4_9_2 0
x_4_10_0 0
x_4_10_1 0
x_4_10_2 0
x_4_11_0 0
x_4_11_1 0
x_4_11_2 0
x_4_12_0 0
x_4_12_1 0
x_4_12_2 0
x_4_13_0 0
x_4_13_1 0
x_4_13_2 0
x_4_14_0 0
x_4_14_1 0
x_4_14_2 0
x_4_15_0 0
x_4_15_1 0
x_4_15_2 0
x_5_6_0 0
x_5_6_1 0
x_5_6_2 0
x_5_7_0 0
x_5_7_1 0
x_5_7_2 0
x_5_8_0 0
x_5_8_1 0
x_5_8_2 0
x_5_9_0 0
x_5_9_1 0
x_5_9_2 0
x_5_10_0 0
x_5_10_1 0
x_5_10_2 0
x_5_11_0 0
x_5_11_1 0
x_5_11_2 0
x_5_12_0 0
x_5_12_1 0
x_5_12_2 0
x_5_13_0 0
x_5_13_1 1
x_5_13_2 0
x_5_14_0 0
x_5_14_1 0
x_5_14_2 0
x_5_15_0 0
x_5_15_1 0
x_5_15_2 0
x_6_7_0 0
x_6_7_1 0
x_6_7_2 0
x_6_8_0 0
x_6_8_1 0
x_6_8_2 0
x_6_9_0 0
x_6_9_1 0
x_6_9_2 0
x_6_10_0 0
x_6_10_1 0
x_6_10_2 0
x_6_11_0 0
x_6_11_1 0
x_6_11_2 0
x_6_12_0 0
x_6_12_1 0
x_6_12_2 0
x_6_13_0 0
x_6_13_1 0
x_6_13_2 0
x_6_14_0 0
x_6_14_1 0
x_6_14_2 0
x_6_15_0 0
x_6_15_1 0
x_6_15_2 0
x_7_8_0 0
x_7_8_1 0
x_7_8_2 0
x_7_9_0 0
x_7_9_1 0
x_7_9_2 0
x_7_10_0 0
x_7_10_1 0
x_7_10_2 0
x_7_11_0 0
x_7_11_1 0
x_7_11_2 0
x_7_12_0 0
x_7_12_1 0
x_7_12_2 0
x_7_13_0 0
x_7_13_1 0
x_7_13_2 0
x_7_14_0 0
x_7_14_1 0
x_7_14_2 0
x_7_15_0 0
x_7_15_1 0
x_7_15_2 0
x_8_9_0 0
x_8_9_1 0
x_8_9_2 0
x_8_10_0 0
x_8_10_1 0
x_8_10_2 0
x_8_11_0 0
x_8_11_1 9.9999999999999978e-01
x_8_11_2 0
x_8_12_0 0
x_8_12_1 0
x_8_12_2 0
x_8_13_0 0
x_8_13_1 0
x_8_13_2 0
x_8_14_0 0
x_8_14_1 0
x_8_14_2 0
x_8_15_0 0
x_8_15_1 0
x_8_15_2 0
x_9_10_0 0
x_9_10_1 0
x_9_10_2 0
x_9_11_0 0
x_9_11_1 -2.4980018054066022e-16
x_9_11_2 0
x_9_12_0 0
x_9_12_1 1.0000000000000002e+00
x_9_12_2 0
x_9_13_0 0
x_9_13_1 0
x_9_13_2 0
x_9_14_0 0
x_9_14_1 0
x_9_14_2 0
x_9_15_0 0
x_9_15_1 0
x_9_15_2 0
x_10_11_0 0
x_10_11_1 0
x_10_11_2 0
x_10_12_0 0
x_10_12_1 0
x_10_12_2 0
x_10_13_0 0
x_10_13_1 0
x_10_13_2 0
x_10_14_0 0
x_10_14_1 1.0000000000000002e+00
x_10_14_2 0
x_10_15_0 0
x_10_15_1 9.9999999999999978e-01
x_10_15_2 0
x_11_12_0 0
x_11_12_1 0
x_11_12_2 0
x_11_13_0 0
x_11_13_1 0
x_11_13_2 0
x_11_14_0 0
x_11_14_1 0
x_11_14_2 0
x_11_15_0 0
x_11_15_1 0
x_11_15_2 0
x_12_13_0 0
x_12_13_1 0
x_12_13_2 0
x_12_14_0 0
x_12_14_1 9.9999999999999978e-01
x_12_14_2 0
x_12_15_0 0
x_12_15_1 0
x_12_15_2 0
x_13_14_0 0
x_13_14_1 0
x_13_14_2 0
x_13_15_0 0
x_13_15_1 1.0000000000000002e+00
x_13_15_2 0
x_14_15_0 0
x_14_15_1 0
x_14_15_2 0
